# Complete Lennard-Jones simulation script
# This file contains both the simulation setup and potential parameters

# Basic settings
units lj
atom_style atomic
boundary p p p

# Create simulation box and atoms
lattice fcc 0.8442
region box block 0 4 0 4 0 4
create_box 1 box
create_atoms 1 box

# Define potential
pair_style lj/cut 2.5
pair_coeff 1 1 1.0 1.0

# Energy minimization
minimize 1.0e-4 1.0e-6 1000 10000

# Set initial velocities
velocity all create 0.7 87287 loop geom

# Define time integration
timestep 0.005
fix 1 all nve

# Output settings
dump 1 all custom 100 dump.lammps id type x y z vx vy vz
dump 2 all xyz 100 dump.xyz
thermo 100

# Run simulation
run 1000 